InboundTrucks  = 60;
OutboundTrucks = 30;
InboundDoors   = 6;
OutboundDoors  = 6;
ReleaseTime    = [25,58,14,22,0,80,80,37,29,51,26,51,69,113,57,7,81,80,22,16,13,104,31,114,3,30,73,32,6,26,18,44,41,104,40,66,113,72,95,27,78,43,83,50,69,80,56,18,60,6,94,56,78,42,68,24,40,69,89,5];
UnloadTime     = [15,40,34,40,43,17,15,19,29,40,42,35,37,31,35,23,27,15,13,24,22,10,38,29,22,31,10,37,14,41,26,31,31,17,35,25,24,12,32,38,30,29,17,10,45,30,35,21,11,37,37,34,25,32,10,15,25,32,22,25];
LoadTime       = [20,23,8,13,21,5,15,20,15,25,12,18,10,15,26,21,11,26,27,21,5,10,8,29,27,11,20,22,25,16];
TransferTime   = [| 0,0,21,0,0,0,0,0,0,35,0,0,0,0,0,0,31,46,0,41,46,0,44,0,0,0,0,0,35,0 | 16,0,0,0,0,39,0,0,0,35,0,0,0,0,34,0,0,39,45,12,0,20,0,20,48,0,0,0,0,0 | 0,0,0,0,0,0,0,0,12,25,0,0,26,39,0,0,0,0,0,31,0,11,0,0,0,0,0,0,0,0 | 0,0,0,0,0,0,14,0,0,0,0,11,0,0,0,26,21,0,34,0,0,0,0,0,0,0,20,0,45,0 | 47,0,0,12,33,43,47,0,0,0,0,14,36,0,18,0,28,0,0,37,23,0,0,11,0,45,0,0,0,0 | 0,18,0,17,39,0,0,0,0,0,0,0,36,0,0,0,20,0,0,0,0,0,0,0,0,0,0,0,0,0 | 0,0,0,17,0,0,0,0,0,0,0,36,0,20,0,0,0,0,10,0,0,0,0,45,0,0,0,0,0,0 | 0,0,0,0,12,0,15,41,0,47,24,46,22,0,0,0,13,0,17,0,35,0,0,0,27,0,0,0,0,16 | 0,0,0,0,20,10,0,38,0,0,0,0,0,0,14,0,0,17,0,0,0,39,0,50,0,0,0,20,14,10 | 34,50,23,0,0,0,0,0,0,0,48,0,0,0,0,26,0,22,0,0,0,0,0,0,44,0,0,13,0,0 | 0,43,0,26,0,0,0,28,0,0,0,17,0,0,0,0,0,18,0,46,0,0,45,38,0,0,36,0,13,0 | 0,26,29,0,0,0,10,0,35,0,0,0,31,32,18,0,0,30,31,0,0,0,10,0,31,0,0,0,0,0 | 49,0,0,50,0,25,0,14,0,17,0,0,0,0,42,0,0,0,0,0,0,0,0,0,0,0,41,0,0,0 | 0,0,0,0,22,0,0,0,21,0,0,28,49,20,0,0,0,0,0,45,0,23,28,0,47,0,0,0,0,0 | 0,0,0,0,29,0,0,0,0,32,36,0,0,0,0,0,30,22,45,0,0,0,0,34,0,0,24,0,0,0 | 0,0,0,0,0,21,0,0,0,0,0,41,46,0,0,0,0,0,0,32,45,0,26,15,0,0,0,26,0,0 | 0,0,0,35,0,16,0,0,0,27,0,0,0,0,30,0,0,0,0,0,31,0,18,0,0,0,12,0,0,49 | 0,0,28,0,0,0,0,0,0,50,0,0,0,0,0,0,0,16,0,0,0,0,0,0,0,0,0,0,45,0 | 0,0,0,0,0,0,0,0,0,15,0,0,0,12,0,41,12,0,0,0,40,0,0,0,0,0,0,0,0,31 | 43,0,0,0,0,41,0,0,0,0,0,17,0,0,28,0,31,0,0,0,0,0,0,0,0,0,49,0,0,11 | 0,0,0,0,24,0,0,0,0,0,0,17,0,0,24,0,0,0,0,0,0,0,0,0,24,0,0,0,0,0 | 48,0,0,32,0,35,0,0,10,0,22,0,0,0,0,29,0,0,0,0,0,0,0,0,14,0,24,0,13,0 | 0,0,50,0,0,0,0,19,0,0,0,0,0,45,42,0,0,0,45,0,0,0,37,0,34,0,0,0,41,50 | 0,0,0,0,0,0,39,0,0,0,44,0,0,48,0,0,0,44,0,0,0,0,0,50,0,18,0,46,0,0 | 0,37,0,0,0,0,0,0,0,0,0,21,0,0,30,0,0,0,0,21,50,0,0,0,0,0,41,0,47,0 | 44,0,0,0,0,0,46,23,0,0,0,0,0,0,0,0,0,36,0,0,0,32,0,12,0,18,0,0,25,0 | 0,0,0,38,29,0,18,0,0,0,32,0,0,12,0,0,0,0,0,0,0,48,0,0,0,46,0,0,0,24 | 0,0,0,0,42,0,23,0,0,37,0,0,0,0,0,0,0,0,0,0,11,0,0,0,0,0,0,24,32,0 | 0,0,48,0,0,0,0,0,24,22,35,46,0,0,0,0,0,46,42,0,0,0,0,0,0,0,30,0,0,0 | 0,41,0,0,47,0,0,0,0,0,0,0,0,49,0,0,0,0,32,0,0,13,49,0,0,0,0,0,0,0 | 0,20,0,35,0,0,0,0,20,0,0,46,0,0,40,0,0,0,0,0,0,0,46,0,31,0,0,0,0,0 | 0,0,0,0,29,0,50,0,0,0,38,0,0,18,0,0,0,49,46,0,0,0,0,0,0,0,0,0,0,0 | 0,0,37,0,0,0,0,0,0,0,28,21,0,24,0,0,0,0,0,0,0,0,36,41,0,0,29,0,0,0 | 0,0,0,0,0,46,0,0,0,0,0,45,0,49,24,0,0,0,0,0,0,0,44,24,0,0,0,0,0,22 | 0,12,0,0,14,0,0,0,0,0,0,0,0,0,0,11,0,0,0,0,49,0,0,37,0,31,0,0,0,0 | 0,0,0,0,45,0,11,0,0,19,22,0,0,26,0,42,0,0,0,0,24,0,0,28,0,0,0,0,0,0 | 32,0,0,0,17,0,0,0,0,0,20,0,0,0,0,0,44,0,0,0,0,0,37,15,0,43,0,0,0,38 | 23,0,0,22,0,13,0,0,0,0,42,20,0,0,0,47,35,0,40,0,0,38,0,0,0,0,38,0,0,38 | 0,0,0,0,0,0,0,0,0,29,0,0,0,0,0,0,0,0,0,0,27,0,0,0,0,0,0,13,41,0 | 0,0,48,0,0,33,0,0,42,0,46,0,0,0,0,0,38,0,0,0,0,0,28,45,10,25,0,0,0,0 | 0,0,0,32,40,0,0,0,0,0,41,0,0,0,11,0,0,49,0,0,0,0,0,0,0,47,0,0,0,0 | 0,0,49,0,0,0,0,0,0,37,0,16,47,0,24,0,0,15,0,0,0,0,0,0,23,0,0,0,0,0 | 0,0,25,0,0,0,0,0,0,34,0,0,0,0,0,0,0,0,0,0,0,0,0,0,0,0,0,0,47,0 | 0,15,45,0,0,0,0,0,0,18,0,0,0,0,0,24,0,0,0,16,0,21,0,0,0,0,0,0,0,0 | 0,0,0,0,37,41,0,0,0,18,21,0,18,32,0,0,18,0,0,0,0,0,0,45,23,0,20,0,0,0 | 0,0,0,0,0,0,0,0,0,0,0,0,0,42,0,0,0,0,0,0,0,0,0,0,0,0,0,0,0,0 | 0,14,0,47,0,0,0,14,20,34,0,0,44,0,0,0,0,0,0,0,13,0,0,0,0,0,0,0,0,47 | 0,0,25,0,0,0,0,29,0,43,0,14,0,0,39,22,14,0,0,0,28,19,0,31,46,0,0,0,0,0 | 0,0,0,0,0,0,0,0,0,0,18,0,0,0,18,17,45,0,31,0,0,0,0,0,49,0,0,10,0,50 | 0,45,0,0,10,0,0,0,0,0,30,0,0,0,20,0,48,0,0,0,48,0,15,43,23,0,0,0,31,0 | 31,0,19,0,0,26,0,0,0,0,27,11,0,26,0,0,50,0,0,0,36,0,0,0,0,0,0,28,0,0 | 49,0,47,0,32,0,0,0,27,0,0,37,13,0,0,0,0,22,42,23,0,24,0,0,0,0,0,0,0,0 | 0,0,0,0,0,0,0,0,44,0,0,0,0,27,0,0,0,30,26,0,0,0,0,0,0,0,46,0,0,0 | 0,41,0,13,15,0,0,0,0,0,0,0,0,15,27,0,40,0,0,0,0,0,0,0,43,0,0,27,0,0 | 13,0,0,0,0,0,0,28,0,45,20,0,24,0,0,0,0,26,0,0,0,0,0,0,41,35,45,0,0,0 | 41,0,0,0,40,0,0,24,0,12,14,0,34,0,12,25,0,0,0,15,0,50,13,11,0,32,45,0,0,23 | 0,0,0,0,0,39,0,30,23,0,0,0,0,0,45,11,0,0,33,0,45,11,0,0,34,0,17,0,0,0 | 0,0,0,0,0,0,0,0,0,0,36,0,0,0,0,0,0,0,0,0,0,0,0,0,0,0,0,0,0,0 | 50,0,0,0,0,39,0,30,0,0,42,0,0,0,0,0,0,0,0,0,0,0,0,0,0,0,0,0,0,0 | 0,0,0,0,0,47,0,0,0,0,0,0,0,0,0,0,0,0,0,0,0,0,0,0,0,10,0,33,0,0 |];
